c 3 - XORSAT
p cnf 40 160
22 25 29 0
-22 -25 29 0
-22 25 -29 0
22 -25 -29 0
-15 -32 -40 0
-15 32 40 0
15 -32 40 0
15 32 -40 0
-4 -28 -33 0
-4 28 33 0
4 -28 33 0
4 28 -33 0
9 19 21 0
-9 -19 21 0
-9 19 -21 0
9 -19 -21 0
-15 -32 -35 0
-15 32 35 0
15 -32 35 0
15 32 -35 0
16 27 35 0
-16 -27 35 0
-16 27 -35 0
16 -27 -35 0
-8 -12 -37 0
-8 12 37 0
8 -12 37 0
8 12 -37 0
-4 -21 -26 0
-4 21 26 0
4 -21 26 0
4 21 -26 0
26 32 36 0
-26 -32 36 0
-26 32 -36 0
26 -32 -36 0
-7 -15 -38 0
-7 15 38 0
7 -15 38 0
7 15 -38 0
-7 -20 -22 0
-7 20 22 0
7 -20 22 0
7 20 -22 0
-1 -38 -39 0
-1 38 39 0
1 -38 39 0
1 38 -39 0
11 24 25 0
-11 -24 25 0
-11 24 -25 0
11 -24 -25 0
23 38 28 0
-23 -38 28 0
-23 38 -28 0
23 -38 -28 0
9 22 25 0
-9 -22 25 0
-9 22 -25 0
9 -22 -25 0
2 17 20 0
-2 -17 20 0
-2 17 -20 0
2 -17 -20 0
2 14 16 0
-2 -14 16 0
-2 14 -16 0
2 -14 -16 0
-6 -10 -26 0
-6 10 26 0
6 -10 26 0
6 10 -26 0
-14 -19 -10 0
-14 19 10 0
14 -19 10 0
14 19 -10 0
-18 -21 -28 0
-18 21 28 0
18 -21 28 0
18 21 -28 0
5 12 31 0
-5 -12 31 0
-5 12 -31 0
5 -12 -31 0
4 5 8 0
-4 -5 8 0
-4 5 -8 0
4 -5 -8 0
-1 -6 -29 0
-1 6 29 0
1 -6 29 0
1 6 -29 0
-12 -31 -39 0
-12 31 39 0
12 -31 39 0
12 31 -39 0
-33 -34 -40 0
-33 34 40 0
33 -34 40 0
33 34 -40 0
17 24 27 0
-17 -24 27 0
-17 24 -27 0
17 -24 -27 0
10 30 35 0
-10 -30 35 0
-10 30 -35 0
10 -30 -35 0
-6 -11 -13 0
-6 11 13 0
6 -11 13 0
6 11 -13 0
3 16 30 0
-3 -16 30 0
-3 16 -30 0
3 -16 -30 0
-5 -8 -34 0
-5 8 34 0
5 -8 34 0
5 8 -34 0
2 23 18 0
-2 -23 18 0
-2 23 -18 0
2 -23 -18 0
18 19 33 0
-18 -19 33 0
-18 19 -33 0
18 -19 -33 0
-13 -29 -30 0
-13 29 30 0
13 -29 30 0
13 29 -30 0
-13 -37 -39 0
-13 37 39 0
13 -37 39 0
13 37 -39 0
-3 -36 -40 0
-3 36 40 0
3 -36 40 0
3 36 -40 0
17 24 36 0
-17 -24 36 0
-17 24 -36 0
17 -24 -36 0
-11 -20 -23 0
-11 20 23 0
11 -20 23 0
11 20 -23 0
1 3 9 0
-1 -3 9 0
-1 3 -9 0
1 -3 -9 0
-7 -27 -31 0
-7 27 31 0
7 -27 31 0
7 27 -31 0
-34 -14 -37 0
-34 14 37 0
34 -14 37 0
34 14 -37 0
